(set-option :print-success false)
(set-logic QF_UF)
(declare-sort x105 0)
(declare-sort x107 0)
(declare-fun x147 (x107 x107) x107)
(declare-fun x96 () x107)
(declare-fun x2 () x107)
(declare-fun x78 () x107)
(declare-fun x152 (x107 x107) x107)
(declare-fun x25 () x107)
(declare-fun x106 () x107)
(assert (and (and (and (= x25 (x147 x2 x78)) (= x106 (x147 x2 x2))) (= x78 (x147 x106 x2))) (= (x147 x25 x78) x96)))
(assert (not (and (= (x147 x96 x96) x25) (and (and (= x2 (x147 x96 x2)) (and (and (= x96 (x147 x96 x25)) (and (= x106 (x147 x78 x96)) (and (= (x147 x78 x78) x78) (and (and (= x25 (x147 x78 x106)) (and (= x2 (x147 x78 x25)) (and (and (and (and (and (= x78 (x147 x2 x25)) (and (and (= x2 (x147 x106 x78)) (and (and (and (= x25 (x147 x106 x25)) (and (and (= x96 (x147 x25 x78)) (and (= x25 (x147 x25 x2)) (and (= (x147 x25 x106) x2) (= x106 (x147 x25 x25))))) (= (x147 x25 x96) x78))) (= (x147 x106 x106) x106)) (= (x147 x106 x2) x78))) (= x96 (x147 x106 x96)))) (= x96 (x147 x2 x106))) (= (x147 x2 x2) x106)) (= (x147 x2 x78) x25)) (= x2 (x147 x2 x96))))) (= x96 (x147 x78 x2)))))) (= (x147 x96 x106) x78))) (= (x147 x96 x78) x106)))))
(assert (let ((x98 (x147 x2 x106)) (x61 (x147 x78 x2)) (x124 (x147 x106 x2)) (x142 (x147 x78 x106)) (x83 (x147 x78 x96)) (x104 (x147 x25 x96)) (x66 (x147 x106 x96)) (x103 (x147 x2 x2)) (x139 (x147 x96 x25)) (x31 (x147 x2 x25)) (x1 (x147 x25 x78)) (x44 (x147 x2 x78)) (x138 (x147 x78 x78)) (x144 (x147 x96 x106)) (x153 (x147 x78 x25)) (x86 (x147 x96 x78)) (x35 (x147 x2 x96)) (x15 (x147 x25 x25)) (x150 (x147 x106 x25)) (x40 (x147 x106 x78)) (x93 (x147 x96 x2)) (x7 (x147 x25 x2)) (x53 (x147 x106 x106)) (x119 (x147 x25 x106)) (x9 (x147 x96 x96))) (and (and (and (and (and (and (and (and (or (or (or (= x15 x2) (or (= x15 x106) (= x15 x25))) (= x78 x15)) (= x15 x96)) (or (= x119 x96) (or (= x78 x119) (or (= x119 x2) (or (= x119 x25) (= x106 x119)))))) (or (or (or (= x7 x2) (or (= x7 x106) (= x25 x7))) (= x78 x7)) (= x96 x7))) (or (or (or (= x2 x1) (or (= x1 x25) (= x1 x106))) (= x1 x78)) (= x1 x96))) (or (= x104 x96) (or (or (= x2 x104) (or (= x106 x104) (= x25 x104))) (= x104 x78)))) (and (or (= x66 x96) (or (= x78 x66) (or (or (= x66 x106) (= x66 x25)) (= x2 x66)))) (and (and (or (or (= x78 x124) (or (= x2 x124) (or (= x124 x106) (= x25 x124)))) (= x96 x124)) (and (or (= x96 x53) (or (= x78 x53) (or (= x2 x53) (or (= x53 x25) (= x53 x106))))) (or (= x150 x96) (or (= x150 x78) (or (= x150 x2) (or (= x150 x25) (= x106 x150))))))) (or (or (= x78 x40) (or (= x2 x40) (or (= x106 x40) (= x25 x40)))) (= x40 x96))))) (and (or (or (or (= x2 x35) (or (= x25 x35) (= x35 x106))) (= x35 x78)) (= x96 x35)) (and (or (= x44 x96) (or (= x78 x44) (or (= x44 x2) (or (= x106 x44) (= x25 x44))))) (and (or (or (= x78 x103) (or (or (= x103 x106) (= x25 x103)) (= x103 x2))) (= x103 x96)) (and (or (or (or (or (= x98 x106) (= x98 x25)) (= x2 x98)) (= x98 x78)) (= x96 x98)) (or (= x96 x31) (or (or (= x31 x2) (or (= x106 x31) (= x31 x25))) (= x78 x31)))))))) (and (and (and (and (or (or (= x78 x142) (or (= x2 x142) (or (= x142 x25) (= x106 x142)))) (= x142 x96)) (or (or (= x78 x153) (or (= x153 x2) (or (= x153 x25) (= x153 x106)))) (= x96 x153))) (or (= x61 x96) (or (= x61 x78) (or (or (= x61 x106) (= x25 x61)) (= x2 x61))))) (or (= x138 x96) (or (or (or (= x138 x106) (= x138 x25)) (= x2 x138)) (= x138 x78)))) (or (= x83 x96) (or (or (= x2 x83) (or (= x83 x25) (= x106 x83))) (= x78 x83))))) (and (and (and (or (or (or (= x2 x93) (or (= x106 x93) (= x25 x93))) (= x78 x93)) (= x96 x93)) (and (or (or (= x78 x139) (or (= x139 x2) (or (= x139 x25) (= x139 x106)))) (= x96 x139)) (or (or (= x78 x144) (or (or (= x144 x25) (= x106 x144)) (= x2 x144))) (= x96 x144)))) (or (= x86 x96) (or (= x78 x86) (or (= x86 x2) (or (= x106 x86) (= x25 x86)))))) (or (= x9 x96) (or (or (or (= x106 x9) (= x9 x25)) (= x9 x2)) (= x78 x9)))))))
(assert (not (and (and (and (and (and (and (and (and (and (= (x147 x78 x106) x96) (and (= x106 (x147 x78 x25)) (and (= (x147 x2 x96) x96) (and (and (= (x147 x2 x2) x106) (and (= (x147 x2 x106) x2) (and (= x78 (x147 x2 x25)) (and (= (x147 x106 x96) x106) (and (and (and (= x25 (x147 x106 x106)) (and (and (and (= (x147 x25 x78) x96) (and (= (x147 x25 x2) x2) (and (= (x147 x25 x106) x106) (= x25 (x147 x25 x25))))) (= (x147 x25 x96) x78)) (= (x147 x106 x25) x96))) (= (x147 x106 x2) x78)) (= x2 (x147 x106 x78))))))) (= (x147 x2 x78) x25))))) (= (x147 x78 x2) x25)) (= x78 (x147 x78 x78))) (= (x147 x78 x96) x2)) (= x2 (x147 x96 x25))) (= (x147 x96 x106) x78)) (= x96 (x147 x96 x2))) (= (x147 x96 x78) x106)) (= (x147 x96 x96) x25))))
(assert (or (and (not (= x96 (x147 x96 (x147 x96 x96)))) (and (not (= x96 (x147 x78 (x147 x96 x78)))) (and (and (not (= (x147 x25 (x147 x96 x25)) x96)) (not (= (x147 x106 (x147 x96 x106)) x96))) (not (= (x147 x2 (x147 x96 x2)) x96))))) (or (or (and (and (and (not (= x2 (x147 x2 (x147 x2 x2)))) (and (not (= x2 (x147 x25 (x147 x2 x25)))) (not (= x2 (x147 x106 (x147 x2 x106)))))) (not (= (x147 x78 (x147 x2 x78)) x2))) (not (= (x147 x96 (x147 x2 x96)) x2))) (or (and (not (= x25 (x147 x96 (x147 x25 x96)))) (and (not (= (x147 x78 (x147 x25 x78)) x25)) (and (and (not (= (x147 x106 (x147 x25 x106)) x25)) (not (= (x147 x25 (x147 x25 x25)) x25))) (not (= x25 (x147 x2 (x147 x25 x2))))))) (and (and (not (= (x147 x78 (x147 x106 x78)) x106)) (and (not (= x106 (x147 x2 (x147 x106 x2)))) (and (not (= x106 (x147 x106 (x147 x106 x106)))) (not (= x106 (x147 x25 (x147 x106 x25))))))) (not (= (x147 x96 (x147 x106 x96)) x106))))) (and (not (= (x147 x96 (x147 x78 x96)) x78)) (and (and (and (not (= x78 (x147 x25 (x147 x78 x25)))) (not (= (x147 x106 (x147 x78 x106)) x78))) (not (= x78 (x147 x2 (x147 x78 x2))))) (not (= (x147 x78 (x147 x78 x78)) x78)))))))
(assert (or (and (and (not (= (x147 (x147 x78 x96) x78) x96)) (and (and (not (= (x147 (x147 x25 x96) x25) x96)) (not (= x96 (x147 (x147 x106 x96) x106)))) (not (= x96 (x147 (x147 x2 x96) x2))))) (not (= (x147 (x147 x96 x96) x96) x96))) (or (or (and (and (not (= x2 (x147 (x147 x78 x2) x78))) (and (not (= (x147 (x147 x2 x2) x2) x2)) (and (not (= x2 (x147 (x147 x106 x2) x106))) (not (= (x147 (x147 x25 x2) x25) x2))))) (not (= x2 (x147 (x147 x96 x2) x96)))) (or (and (and (and (and (not (= x106 (x147 (x147 x25 x106) x25))) (not (= x106 (x147 (x147 x106 x106) x106)))) (not (= x106 (x147 (x147 x2 x106) x2)))) (not (= (x147 (x147 x78 x106) x78) x106))) (not (= (x147 (x147 x96 x106) x96) x106))) (and (and (and (not (= (x147 (x147 x2 x25) x2) x25)) (and (not (= x25 (x147 (x147 x25 x25) x25))) (not (= x25 (x147 (x147 x106 x25) x106))))) (not (= (x147 (x147 x78 x25) x78) x25))) (not (= (x147 (x147 x96 x25) x96) x25))))) (and (not (= x78 (x147 (x147 x96 x78) x96))) (and (not (= x78 (x147 (x147 x78 x78) x78))) (and (not (= (x147 (x147 x2 x78) x2) x78)) (and (not (= (x147 (x147 x25 x78) x25) x78)) (not (= x78 (x147 (x147 x106 x78) x106))))))))))
(assert (and (and (or (= x96 (x147 x96 x78)) (or (or (= x2 (x147 x2 x78)) (or (= (x147 x106 x78) x106) (= x25 (x147 x25 x78)))) (= x78 (x147 x78 x78)))) (and (or (or (or (or (= (x147 x25 x2) x25) (= x106 (x147 x106 x2))) (= x2 (x147 x2 x2))) (= x78 (x147 x78 x2))) (= (x147 x96 x2) x96)) (and (or (or (= x78 (x147 x78 x106)) (or (or (= (x147 x106 x106) x106) (= x25 (x147 x25 x106))) (= (x147 x2 x106) x2))) (= (x147 x96 x106) x96)) (or (or (= x78 (x147 x78 x25)) (or (= x2 (x147 x2 x25)) (or (= (x147 x25 x25) x25) (= (x147 x106 x25) x106)))) (= (x147 x96 x25) x96))))) (or (or (= (x147 x78 x96) x78) (or (= x2 (x147 x2 x96)) (or (= (x147 x25 x96) x25) (= (x147 x106 x96) x106)))) (= x96 (x147 x96 x96)))))
(assert (let ((x1 (x147 x78 x78)) (x104 (x147 x96 x96)) (x7 (x147 x2 x2)) (x119 (x147 x106 x106)) (x15 (x147 x25 x25))) (or (and (not (= x96 x104)) (and (not (= x1 x96)) (and (and (not (= x15 x96)) (not (= x96 x119))) (not (= x96 x7))))) (or (or (and (not (= x2 x104)) (and (and (and (not (= x2 x15)) (not (= x119 x2))) (not (= x2 x7))) (not (= x2 x1)))) (or (and (not (= x104 x106)) (and (and (not (= x7 x106)) (and (not (= x119 x106)) (not (= x106 x15)))) (not (= x1 x106)))) (and (and (and (not (= x25 x7)) (and (not (= x25 x15)) (not (= x119 x25)))) (not (= x1 x25))) (not (= x25 x104))))) (and (not (= x78 x104)) (and (not (= x1 x78)) (and (not (= x78 x7)) (and (not (= x15 x78)) (not (= x78 x119))))))))))
(assert (let ((x144 (x147 x106 x96)) (x135 (x147 x96 x106)) (x52 (x147 x96 x78)) (x149 (x147 x96 x96)) (x104 (x147 x25 x78)) (x150 (x147 x25 x96)) (x60 (x147 x2 x2)) (x40 (x147 x2 x25)) (x7 (x147 x25 x106)) (x83 (x147 x106 x2)) (x119 (x147 x25 x25)) (x139 (x147 x106 x78)) (x1 (x147 x25 x2)) (x66 (x147 x78 x25)) (x130 (x147 x78 x78)) (x16 (x147 x78 x96)) (x94 (x147 x78 x2)) (x30 (x147 x96 x2)) (x85 (x147 x2 x96)) (x124 (x147 x106 x25)) (x31 (x147 x96 x25)) (x56 (x147 x78 x106)) (x138 (x147 x106 x106)) (x4 (x147 x2 x78)) (x9 (x147 x2 x106))) (let ((x99 (= x78 x138)) (x71 (= x96 x4)) (x118 (= x78 x60)) (x23 (= x96 x7)) (x153 (= x7 x25)) (x45 (= x31 x96)) (x97 (= x144 x2)) (x151 (= x25 x83)) (x6 (= x40 x2)) (x132 (= x56 x25)) (x41 (= x144 x78)) (x111 (= x106 x149)) (x37 (= x25 x16)) (x42 (= x85 x2)) (x113 (= x66 x106)) (x155 (= x78 x83)) (x80 (= x78 x4)) (x27 (= x78 x30)) (x159 (= x96 x130)) (x24 (= x2 x16)) (x136 (= x106 x130)) (x62 (= x106 x60)) (x69 (= x96 x139)) (x11 (= x78 x85)) (x110 (= x83 x106)) (x75 (= x4 x106)) (x49 (= x106 x52)) (x120 (= x106 x144)) (x67 (= x139 x2)) (x86 (= x138 x106)) (x18 (= x104 x25)) (x33 (= x85 x25)) (x5 (= x2 x138)) (x88 (= x139 x78)) (x137 (= x56 x78)) (x3 (= x150 x78)) (x122 (= x9 x96)) (x39 (= x25 x94)) (x10 (= x1 x25)) (x57 (= x106 x30)) (x133 (= x4 x25)) (x36 (= x16 x106)) (x15 (= x25 x119)) (x156 (= x135 x106)) (x79 (= x16 x96)) (x100 (= x150 x106)) (x22 (= x25 x149)) (x154 (= x25 x40)) (x19 (= x78 x9)) (x108 (= x135 x96)) (x58 (= x83 x96)) (x158 (= x106 x85)) (x38 (= x2 x1)) (x32 (= x60 x96)) (x51 (= x2 x94)) (x21 (= x130 x2)) (x128 (= x78 x130)) (x35 (= x124 x25)) (x116 (= x78 x104)) (x46 (= x4 x2)) (x142 (= x138 x25)) (x29 (= x30 x25)) (x65 (= x83 x2)) (x146 (= x31 x106)) (x76 (= x9 x25)) (x13 (= x7 x2)) (x47 (= x25 x130)) (x92 (= x56 x2)) (x98 (= x119 x2)) (x55 (= x144 x96)) (x112 (= x1 x96)) (x82 (= x78 x149)) (x103 (= x78 x119)) (x129 (= x104 x2)) (x20 (= x25 x31)) (x101 (= x66 x78)) (x17 (= x2 x135)) (x12 (= x52 x25)) (x93 (= x106 x7)) (x48 (= x25 x139)) (x63 (= x56 x106)) (x68 (= x78 x94)) (x90 (= x2 x124)) (x114 (= x2 x66)) (x72 (= x135 x78)) (x125 (= x94 x96)) (x44 (= x96 x119)) (x157 (= x25 x135)) (x8 (= x96 x66)) (x84 (= x52 x2)) (x26 (= x96 x85)) (x54 (= x78 x31)) (x95 (= x106 x9)) (x115 (= x2 x150)) (x141 (= x40 x106)) (x102 (= x60 x25)) (x109 (= x150 x96)) (x127 (= x1 x106)) (x134 (= x40 x78)) (x53 (= x106 x119)) (x74 (= x144 x25)) (x140 (= x1 x78)) (x64 (= x96 x124)) (x126 (= x25 x150)) (x28 (= x60 x2)) (x117 (= x96 x56)) (x91 (= x106 x94)) (x14 (= x104 x106)) (x121 (= x52 x78)) (x34 (= x96 x149)) (x148 (= x96 x52)) (x81 (= x149 x2)) (x87 (= x78 x124)) (x43 (= x2 x31)) (x70 (= x2 x30)) (x73 (= x78 x16)) (x61 (= x106 x124)) (x59 (= x9 x2)) (x131 (= x138 x96)) (x143 (= x96 x30)) (x145 (= x40 x96)) (x50 (= x25 x66)) (x77 (= x104 x96)) (x89 (= x139 x106)) (x123 (= x7 x78))) (and (and (and (and (and (and (and (or (or (or x134 (or x87 x103)) x101) x54) (or (or (or x140 (or x123 x103)) x116) x3)) (and (and (or (or x129 (or (or x13 x98) x38)) x115) (or (or x114 (or (or x98 x90) x6)) x43)) (and (and (or x100 (or x14 (or (or x53 x93) x127))) (or (or (or (or x53 x61) x141) x113) x146)) (and (or (or x50 (or x154 (or x35 x15))) x20) (or (or x18 (or (or x153 x15) x10)) x126))))) (and (or (or (or x112 (or x44 x23)) x77) x109) (or (or x8 (or (or x64 x44) x145)) x45))) (and (and (or (or x69 (or x58 (or x131 x64))) x55) (or (or (or (or x23 x131) x122) x117) x108)) (and (and (and (or (or x92 (or (or x5 x13) x59)) x17) (or (or (or (or x5 x90) x65) x67) x97)) (and (and (or (or (or x76 (or x153 x142)) x132) x157) (or (or (or x151 (or x35 x142)) x48) x74)) (and (or x120 (or x89 (or x110 (or x86 x61)))) (or x156 (or (or x95 (or x86 x93)) x63))))) (and (or x41 (or x88 (or (or x87 x99) x155))) (or x72 (or (or (or x99 x123) x19) x137)))))) (and (and (or (or (or x32 (or x58 x112)) x125) x143) (or (or x71 (or (or x122 x145) x32)) x26)) (and (and (and (and (or (or x91 (or (or x127 x110) x62)) x57) (or (or (or x62 (or x141 x95)) x75) x158)) (and (or x29 (or (or (or x10 x151) x102) x39)) (or (or (or (or x76 x154) x102) x133) x33))) (and (or x42 (or (or (or x59 x6) x28) x46)) (or (or x51 (or (or x38 x65) x28)) x70))) (and (or (or (or (or x140 x155) x118) x68) x27) (or (or (or x118 (or x134 x19)) x80) x11))))) (and (and (or (or (or x125 (or x117 x8)) x159) x79) (or x148 (or x159 (or (or x77 x69) x71)))) (and (and (and (or x24 (or x21 (or x51 (or x92 x114)))) (or (or (or x46 (or x129 x67)) x21) x84)) (and (and (or x36 (or x136 (or (or x113 x63) x91))) (or (or x136 (or x75 (or x89 x14))) x49)) (and (or x37 (or x47 (or x39 (or x50 x132)))) (or x12 (or (or x133 (or x18 x48)) x47))))) (and (or (or (or x68 (or x137 x101)) x128) x73) (or x121 (or x128 (or x80 (or x116 x88)))))))) (and (and (or x34 (or (or (or x55 x109) x26) x79)) (or x34 (or x148 (or (or x45 x108) x143)))) (and (and (or (or (or (or x54 x72) x27) x121) x82) (or x82 (or x73 (or (or x3 x41) x11)))) (and (and (or x81 (or (or (or x97 x115) x42) x24)) (or (or (or (or x17 x43) x70) x84) x81)) (and (and (or x22 (or (or (or x126 x74) x33) x37)) (or x22 (or (or x29 (or x157 x20)) x12))) (and (or (or (or (or x120 x100) x158) x36) x111) (or (or x49 (or x57 (or x146 x156))) x111))))))))))
(assert (and (or (or (= (x147 x96 (x147 x96 x78)) x78) (or (or (= (x147 x96 (x147 x96 x25)) x25) (= x106 (x147 x96 (x147 x96 x106)))) (= x2 (x147 x96 (x147 x96 x2))))) (= (x147 x96 (x147 x96 x96)) x96)) (and (and (and (or (or (= x78 (x147 x106 (x147 x106 x78))) (or (or (= x106 (x147 x106 (x147 x106 x106))) (= x25 (x147 x106 (x147 x106 x25)))) (= x2 (x147 x106 (x147 x106 x2))))) (= x96 (x147 x106 (x147 x106 x96)))) (or (or (= (x147 x25 (x147 x25 x78)) x78) (or (or (= (x147 x25 (x147 x25 x106)) x106) (= (x147 x25 (x147 x25 x25)) x25)) (= x2 (x147 x25 (x147 x25 x2))))) (= (x147 x25 (x147 x25 x96)) x96))) (or (or (= (x147 x2 (x147 x2 x78)) x78) (or (= x2 (x147 x2 (x147 x2 x2))) (or (= x106 (x147 x2 (x147 x2 x106))) (= (x147 x2 (x147 x2 x25)) x25)))) (= x96 (x147 x2 (x147 x2 x96))))) (or (= x96 (x147 x78 (x147 x78 x96))) (or (= x78 (x147 x78 (x147 x78 x78))) (or (= (x147 x78 (x147 x78 x2)) x2) (or (= (x147 x78 (x147 x78 x25)) x25) (= (x147 x78 (x147 x78 x106)) x106))))))))
(assert (and (and (and (and (or (or (= (x147 (x147 x78 x25) x25) x78) (or (= (x147 (x147 x2 x25) x25) x2) (or (= x25 (x147 (x147 x25 x25) x25)) (= (x147 (x147 x106 x25) x25) x106)))) (= x96 (x147 (x147 x96 x25) x25))) (or (or (or (= x2 (x147 (x147 x2 x106) x106)) (or (= (x147 (x147 x106 x106) x106) x106) (= x25 (x147 (x147 x25 x106) x106)))) (= (x147 (x147 x78 x106) x106) x78)) (= (x147 (x147 x96 x106) x106) x96))) (or (or (= x78 (x147 (x147 x78 x2) x2)) (or (= (x147 (x147 x2 x2) x2) x2) (or (= x106 (x147 (x147 x106 x2) x2)) (= x25 (x147 (x147 x25 x2) x2))))) (= (x147 (x147 x96 x2) x2) x96))) (or (= (x147 (x147 x96 x78) x78) x96) (or (or (= (x147 (x147 x2 x78) x78) x2) (or (= (x147 (x147 x106 x78) x78) x106) (= x25 (x147 (x147 x25 x78) x78)))) (= x78 (x147 (x147 x78 x78) x78))))) (or (or (or (= (x147 (x147 x2 x96) x96) x2) (or (= x106 (x147 (x147 x106 x96) x96)) (= x25 (x147 (x147 x25 x96) x96)))) (= x78 (x147 (x147 x78 x96) x96))) (= (x147 (x147 x96 x96) x96) x96))))
(assert (or (= (x147 x96 x96) x96) (or (= (x147 x78 x78) x78) (or (= (x147 x2 x2) x2) (or (= x106 (x147 x106 x106)) (= (x147 x25 x25) x25))))))
(assert (let ((x31 (x147 x25 x2)) (x93 (x147 x2 x96)) (x142 (x147 x106 x78)) (x139 (x147 x25 x96)) (x104 (x147 x96 x25)) (x61 (x147 x2 x78)) (x53 (x147 x106 x106)) (x144 (x147 x106 x96)) (x15 (x147 x25 x25)) (x86 (x147 x78 x96)) (x7 (x147 x2 x25)) (x153 (x147 x25 x78)) (x103 (x147 x2 x2)) (x119 (x147 x106 x25)) (x9 (x147 x96 x96)) (x44 (x147 x78 x2)) (x150 (x147 x25 x106)) (x1 (x147 x78 x25)) (x124 (x147 x2 x106)) (x138 (x147 x78 x78)) (x98 (x147 x106 x2)) (x40 (x147 x78 x106)) (x83 (x147 x96 x78)) (x35 (x147 x96 x2)) (x66 (x147 x96 x106))) (and (and (and (not (= x9 x86)) (and (not (= x93 x9)) (and (not (= x93 x86)) (and (and (and (not (= x93 x144)) (and (not (= x9 x139)) (and (not (= x86 x139)) (and (not (= x139 x144)) (not (= x139 x93)))))) (not (= x144 x86))) (not (= x144 x9)))))) (and (and (not (= x83 x138)) (and (not (= x61 x83)) (and (and (not (= x83 x142)) (and (and (and (not (= x83 x153)) (and (and (not (= x61 x153)) (not (= x142 x153))) (not (= x153 x138)))) (not (= x61 x142))) (not (= x138 x142)))) (not (= x138 x61))))) (and (and (and (not (= x1 x104)) (and (and (and (and (and (and (not (= x15 x104)) (and (not (= x15 x1)) (and (not (= x15 x119)) (not (= x15 x7))))) (not (= x119 x7))) (not (= x1 x119))) (not (= x104 x119))) (not (= x7 x1))) (not (= x7 x104)))) (and (not (= x40 x66)) (and (and (and (not (= x53 x66)) (and (not (= x40 x53)) (and (and (not (= x150 x66)) (and (not (= x40 x150)) (and (not (= x53 x150)) (not (= x150 x124))))) (not (= x124 x53))))) (not (= x124 x40))) (not (= x66 x124))))) (and (and (not (= x35 x103)) (and (not (= x44 x103)) (and (and (and (not (= x98 x103)) (and (not (= x31 x35)) (and (and (not (= x31 x103)) (not (= x98 x31))) (not (= x44 x31))))) (not (= x98 x44))) (not (= x98 x35))))) (not (= x44 x35)))))) (and (and (and (and (not (= x93 x61)) (and (and (and (and (and (and (not (= x93 x7)) (and (and (not (= x124 x7)) (not (= x103 x7))) (not (= x7 x61)))) (not (= x124 x103))) (not (= x124 x61))) (not (= x93 x124))) (not (= x103 x61))) (not (= x103 x93)))) (and (and (not (= x139 x153)) (and (not (= x31 x139)) (and (and (and (not (= x153 x150)) (and (not (= x150 x31)) (and (not (= x139 x15)) (and (not (= x15 x153)) (and (not (= x31 x15)) (not (= x15 x150))))))) (not (= x139 x150))) (not (= x31 x153))))) (and (and (and (and (not (= x53 x144)) (and (not (= x142 x53)) (and (not (= x98 x53)) (and (not (= x119 x144)) (and (and (not (= x119 x53)) (not (= x119 x98))) (not (= x119 x142))))))) (not (= x142 x98))) (not (= x98 x144))) (not (= x144 x142))))) (and (and (and (and (and (not (= x40 x138)) (and (not (= x44 x40)) (and (and (not (= x138 x1)) (and (not (= x1 x40)) (not (= x1 x44)))) (not (= x86 x1))))) (not (= x40 x86))) (not (= x44 x138))) (not (= x44 x86))) (not (= x86 x138)))) (and (not (= x83 x9)) (and (not (= x35 x9)) (and (and (not (= x66 x9)) (and (not (= x66 x83)) (and (and (and (and (not (= x104 x35)) (not (= x66 x104))) (not (= x104 x83))) (not (= x104 x9))) (not (= x66 x35))))) (not (= x35 x83)))))))))
(assert (and (and (not (= x96 x2)) (and (and (and (and (and (and (not (= x78 x25)) (and (not (= x2 x25)) (not (= x25 x106)))) (not (= x25 x96))) (not (= x106 x2))) (not (= x78 x106))) (not (= x106 x96))) (not (= x78 x2)))) (not (= x96 x78))))
(assert (let ((x76 (x147 x106 x106)) (x95 (x147 x78 x106)) (x59 (x147 x78 x2)) (x90 (x147 x25 x106)) (x56 (x147 x25 x25)) (x58 (x147 x96 x78)) (x87 (x147 x2 x25)) (x141 (x147 x106 x78)) (x6 (x147 x2 x78)) (x23 (x147 x96 x25)) (x38 (x147 x2 x96)) (x60 (x147 x106 x96)) (x65 (x147 x96 x2)) (x94 (x147 x2 x2)) (x113 (x147 x96 x96)) (x112 (x147 x78 x96)) (x5 (x147 x25 x2)) (x151 (x147 x106 x2)) (x145 (x147 x78 x78)) (x102 (x147 x2 x106)) (x123 (x147 x25 x78)) (x13 (x147 x106 x25)) (x4 (x147 x96 x106)) (x64 (x147 x25 x96)) (x99 (x147 x78 x25))) (let ((x104 (not (= x25 x87))) (x103 (not (= x25 x141))) (x45 (not (= x23 x96))) (x62 (not (= x106 x151))) (x131 (not (= x13 x106))) (x80 (not (= x2 x65))) (x119 (not (= x13 x25))) (x93 (not (= x25 x58))) (x44 (not (= x59 x25))) (x33 (not (= x123 x78))) (x10 (not (= x76 x106))) (x125 (not (= x2 x113))) (x158 (not (= x65 x78))) (x50 (not (= x106 x64))) (x139 (not (= x65 x25))) (x118 (not (= x6 x106))) (x28 (not (= x106 x99))) (x144 (not (= x38 x25))) (x52 (not (= x151 x2))) (x135 (not (= x106 x56))) (x68 (not (= x2 x64))) (x46 (not (= x2 x59))) (x157 (not (= x5 x78))) (x159 (not (= x76 x78))) (x26 (not (= x58 x96))) (x98 (not (= x95 x25))) (x122 (not (= x106 x145))) (x89 (not (= x87 x2))) (x114 (not (= x94 x2))) (x146 (not (= x59 x78))) (x70 (not (= x56 x96))) (x124 (not (= x151 x25))) (x15 (not (= x56 x25))) (x142 (not (= x25 x23))) (x129 (not (= x95 x2))) (x88 (not (= x2 x60))) (x128 (not (= x2 x38))) (x155 (not (= x106 x59))) (x91 (not (= x56 x2))) (x97 (not (= x76 x96))) (x130 (not (= x13 x2))) (x77 (not (= x56 x78))) (x31 (not (= x25 x123))) (x51 (not (= x123 x2))) (x100 (not (= x78 x4))) (x27 (not (= x99 x96))) (x40 (not (= x94 x25))) (x120 (not (= x78 x60))) (x132 (not (= x4 x106))) (x63 (not (= x113 x106))) (x16 (not (= x2 x90))) (x43 (not (= x112 x78))) (x108 (not (= x64 x96))) (x12 (not (= x151 x78))) (x9 (not (= x25 x113))) (x117 (not (= x112 x2))) (x24 (not (= x5 x96))) (x101 (not (= x2 x145))) (x19 (not (= x95 x106))) (x136 (not (= x2 x102))) (x32 (not (= x106 x23))) (x140 (not (= x106 x141))) (x29 (not (= x78 x102))) (x84 (not (= x96 x13))) (x137 (not (= x2 x23))) (x110 (not (= x102 x106))) (x138 (not (= x25 x4))) (x121 (not (= x123 x96))) (x153 (not (= x25 x145))) (x14 (not (= x2 x76))) (x148 (not (= x96 x60))) (x126 (not (= x78 x94))) (x54 (not (= x96 x151))) (x81 (not (= x102 x96))) (x3 (not (= x95 x96))) (x34 (not (= x96 x113))) (x115 (not (= x96 x90))) (x17 (not (= x78 x113))) (x150 (not (= x5 x25))) (x111 (not (= x78 x58))) (x74 (not (= x99 x78))) (x156 (not (= x78 x6))) (x143 (not (= x4 x96))) (x8 (not (= x58 x2))) (x42 (not (= x96 x87))) (x49 (not (= x23 x78))) (x48 (not (= x106 x38))) (x22 (not (= x141 x78))) (x55 (not (= x38 x96))) (x30 (not (= x106 x94))) (x71 (not (= x78 x90))) (x39 (not (= x106 x60))) (x61 (not (= x25 x64))) (x75 (not (= x5 x2))) (x116 (not (= x2 x4))) (x127 (not (= x5 x106))) (x134 (not (= x123 x106))) (x57 (not (= x145 x78))) (x109 (not (= x96 x65))) (x35 (not (= x6 x25))) (x133 (not (= x58 x106))) (x21 (not (= x2 x6))) (x85 (not (= x87 x106))) (x92 (not (= x2 x99))) (x11 (not (= x59 x96))) (x149 (not (= x64 x78))) (x66 (not (= x25 x99))) (x86 (not (= x25 x112))) (x37 (not (= x78 x95))) (x72 (not (= x96 x94))) (x18 (not (= x106 x65))) (x41 (not (= x141 x96))) (x83 (not (= x25 x60))) (x154 (not (= x106 x90))) (x67 (not (= x141 x2))) (x7 (not (= x25 x90))) (x36 (not (= x38 x78))) (x47 (not (= x106 x112))) (x53 (not (= x25 x102))) (x1 (not (= x25 x76))) (x82 (not (= x96 x145))) (x79 (not (= x112 x96))) (x20 (not (= x78 x87))) (x73 (not (= x6 x96))) (x69 (not (= x78 x13)))) (or (and (and (and (or x26 x79) (and (or x109 x55) (and (or x45 x108) (or x148 x143)))) (or x34 x34)) (and (and (and (and (or x73 x11) (and (and (or x42 x24) (or x81 x54)) (or x72 x72))) (or x109 x55)) (and (and (or x45 x108) (and (and (and (or x70 x70) (or x115 x84)) (or x42 x24)) (or x27 x121))) (and (or x148 x143) (and (or x41 x3) (and (and (or x84 x115) (or x97 x97)) (or x54 x81)))))) (and (or x26 x79) (and (or x82 x82) (and (and (or x41 x3) (or x121 x27)) (or x11 x73)))))) (or (or (or (and (and (and (or x86 x93) (and (and (or x44 x35) (and (or x98 x103) (or x31 x66))) (or x153 x153))) (and (and (and (or x61 x142) (and (and (and (or x15 x15) (or x119 x7)) (or x104 x150)) (or x66 x31))) (and (and (and (or x53 x124) (and (or x1 x1) (or x7 x119))) (or x103 x98)) (or x138 x83))) (and (and (or x44 x35) (and (and (or x53 x124) (or x104 x150)) (or x40 x40))) (or x144 x139)))) (and (or x9 x9) (and (and (or x144 x139) (and (or x142 x61) (or x138 x83))) (or x86 x93)))) (and (and (and (and (and (and (or x28 x134) (and (and (or x135 x135) (or x131 x154)) (or x127 x85))) (or x50 x32)) (and (and (and (and (or x10 x10) (or x154 x131)) (or x110 x62)) (or x140 x19)) (or x132 x39))) (and (or x18 x48) (and (and (or x30 x30) (and (or x85 x127) (or x110 x62))) (or x155 x118)))) (and (or x47 x133) (and (and (or x155 x118) (and (or x140 x19) (or x28 x134))) (or x122 x122)))) (and (or x63 x63) (and (and (or x18 x48) (and (or x132 x39) (or x32 x50))) (or x47 x133))))) (and (and (and (or x8 x117) (and (or x128 x80) (and (or x68 x137) (or x116 x88)))) (or x125 x125)) (and (and (and (or x128 x80) (and (and (and (or x52 x136) (or x89 x75)) (or x114 x114)) (or x21 x46))) (and (and (or x137 x68) (and (and (or x75 x89) (and (or x130 x16) (or x91 x91))) (or x51 x92))) (and (or x88 x116) (and (or x67 x129) (and (and (or x14 x14) (or x130 x16)) (or x52 x136)))))) (and (or x8 x117) (and (and (and (or x51 x92) (or x67 x129)) (or x46 x21)) (or x101 x101)))))) (and (and (and (or x111 x43) (and (or x57 x57) (and (or x156 x146) (and (or x22 x37) (or x33 x74))))) (and (and (and (and (or x37 x22) (and (and (or x69 x71) (or x159 x159)) (or x12 x29))) (or x120 x100)) (and (and (or x74 x33) (and (and (or x71 x69) (or x77 x77)) (or x20 x157))) (or x49 x149))) (and (or x158 x36) (and (or x146 x156) (and (or x126 x126) (and (or x157 x20) (or x29 x12))))))) (and (and (and (or x36 x158) (and (or x120 x100) (or x149 x49))) (or x43 x111)) (or x17 x17))))))))
(assert (or (and (and (not (= x78 (x147 x96 x78))) (and (not (= (x147 x96 x2) x2)) (and (not (= (x147 x96 x25) x25)) (not (= x106 (x147 x96 x106)))))) (not (= x96 (x147 x96 x96)))) (or (and (not (= x96 (x147 x78 x96))) (and (and (not (= x2 (x147 x78 x2))) (and (not (= (x147 x78 x106) x106)) (not (= (x147 x78 x25) x25)))) (not (= x78 (x147 x78 x78))))) (or (and (not (= (x147 x2 x96) x96)) (and (and (and (not (= (x147 x2 x106) x106)) (not (= x25 (x147 x2 x25)))) (not (= (x147 x2 x2) x2))) (not (= x78 (x147 x2 x78))))) (or (and (and (not (= (x147 x106 x78) x78)) (and (and (not (= (x147 x106 x106) x106)) (not (= x25 (x147 x106 x25)))) (not (= x2 (x147 x106 x2))))) (not (= x96 (x147 x106 x96)))) (and (not (= (x147 x25 x96) x96)) (and (not (= (x147 x25 x78) x78)) (and (not (= x2 (x147 x25 x2))) (and (not (= x106 (x147 x25 x106))) (not (= x25 (x147 x25 x25))))))))))))
(assert (let ((x99 (x147 x78 x25)) (x94 (x147 x2 x2)) (x112 (x147 x78 x96)) (x102 (x147 x2 x106)) (x60 (x147 x106 x96)) (x87 (x147 x2 x25)) (x6 (x147 x2 x78)) (x151 (x147 x106 x2)) (x64 (x147 x25 x96)) (x59 (x147 x78 x2)) (x95 (x147 x78 x106)) (x38 (x147 x2 x96)) (x90 (x147 x25 x106)) (x123 (x147 x25 x78)) (x58 (x147 x96 x78)) (x23 (x147 x96 x25)) (x13 (x147 x106 x25)) (x145 (x147 x78 x78)) (x65 (x147 x96 x2)) (x5 (x147 x25 x2)) (x4 (x147 x96 x106)) (x113 (x147 x96 x96)) (x56 (x147 x25 x25)) (x141 (x147 x106 x78)) (x76 (x147 x106 x106))) (let ((x63 (= x113 x106)) (x134 (= x123 x106)) (x77 (= x78 x56)) (x43 (= x112 x78)) (x133 (= x58 x106)) (x44 (= x59 x25)) (x130 (= x2 x13)) (x159 (= x76 x78)) (x42 (= x96 x87)) (x132 (= x4 x106)) (x22 (= x78 x141)) (x41 (= x96 x141)) (x49 (= x78 x23)) (x71 (= x78 x90)) (x40 (= x25 x94)) (x153 (= x145 x25)) (x150 (= x5 x25)) (x81 (= x102 x96)) (x156 (= x6 x78)) (x126 (= x94 x78)) (x37 (= x95 x78)) (x46 (= x59 x2)) (x125 (= x2 x113)) (x18 (= x65 x106)) (x16 (= x2 x90)) (x28 (= x99 x106)) (x35 (= x25 x6)) (x55 (= x38 x96)) (x66 (= x99 x25)) (x24 (= x5 x96)) (x36 (= x38 x78)) (x91 (= x56 x2)) (x48 (= x106 x38)) (x108 (= x64 x96)) (x73 (= x96 x6)) (x143 (= x96 x4)) (x110 (= x106 x102)) (x140 (= x141 x106)) (x89 (= x87 x2)) (x83 (= x25 x60)) (x157 (= x5 x78)) (x67 (= x141 x2)) (x124 (= x25 x151)) (x92 (= x99 x2)) (x15 (= x56 x25)) (x21 (= x6 x2)) (x53 (= x25 x102)) (x11 (= x59 x96)) (x85 (= x106 x87)) (x70 (= x96 x56)) (x68 (= x2 x64)) (x104 (= x87 x25)) (x154 (= x106 x90)) (x79 (= x96 x112)) (x84 (= x96 x13)) (x8 (= x58 x2)) (x158 (= x65 x78)) (x80 (= x2 x65)) (x69 (= x78 x13)) (x131 (= x106 x13)) (x88 (= x2 x60)) (x27 (= x99 x96)) (x14 (= x2 x76)) (x50 (= x64 x106)) (x1 (= x76 x25)) (x82 (= x145 x96)) (x149 (= x64 x78)) (x19 (= x106 x95)) (x127 (= x5 x106)) (x103 (= x25 x141)) (x138 (= x4 x25)) (x101 (= x2 x145)) (x116 (= x2 x4)) (x142 (= x25 x23)) (x3 (= x95 x96)) (x72 (= x96 x94)) (x74 (= x78 x99)) (x17 (= x78 x113)) (x34 (= x96 x113)) (x10 (= x76 x106)) (x117 (= x112 x2)) (x118 (= x106 x6)) (x45 (= x96 x23)) (x120 (= x78 x60)) (x7 (= x90 x25)) (x121 (= x96 x123)) (x86 (= x112 x25)) (x57 (= x145 x78)) (x155 (= x106 x59)) (x33 (= x78 x123)) (x26 (= x58 x96)) (x30 (= x94 x106)) (x31 (= x25 x123)) (x100 (= x78 x4)) (x93 (= x25 x58)) (x97 (= x96 x76)) (x122 (= x106 x145)) (x115 (= x90 x96)) (x136 (= x2 x102)) (x119 (= x25 x13)) (x62 (= x106 x151)) (x109 (= x65 x96)) (x128 (= x2 x38)) (x114 (= x2 x94)) (x129 (= x95 x2)) (x32 (= x23 x106)) (x135 (= x56 x106)) (x75 (= x2 x5)) (x51 (= x123 x2)) (x29 (= x78 x102)) (x9 (= x113 x25)) (x148 (= x96 x60)) (x111 (= x58 x78)) (x61 (= x64 x25)) (x137 (= x2 x23)) (x39 (= x60 x106)) (x20 (= x87 x78)) (x139 (= x25 x65)) (x12 (= x151 x78)) (x47 (= x112 x106)) (x144 (= x38 x25)) (x146 (= x78 x59)) (x98 (= x95 x25)) (x54 (= x151 x96)) (x52 (= x2 x151))) (or (or (and (and (or x17 (not x17)) (and (and (and (or (not x49) x149) (or x120 (not x100))) (or (not x158) x36)) (or x43 (not x111)))) (and (and (and (or (not x57) x57) (and (or (not x146) x156) (and (or (not x37) x22) (or (not x74) x33)))) (or (not x43) x111)) (and (and (or (not x36) x158) (and (and (and (or (not x20) x157) (or x12 (not x29))) (or x126 (not x126))) (or (not x156) x146))) (and (and (and (or x74 (not x33)) (and (or x20 (not x157)) (and (or (not x77) x77) (or (not x71) x69)))) (or (not x149) x49)) (and (or (not x120) x100) (and (and (or (not x12) x29) (and (or (not x159) x159) (or (not x69) x71))) (or (not x22) x37))))))) (or (or (and (and (and (or x47 (not x133)) (and (or x48 (not x18)) (and (or x50 (not x32)) (or (not x132) x39)))) (or (not x63) x63)) (and (and (and (and (and (or (not x30) x30) (and (or x127 (not x85)) (or x62 (not x110)))) (or x155 (not x118))) (or x18 (not x48))) (and (and (or (not x50) x32) (and (or x28 (not x134)) (and (or x85 (not x127)) (and (or (not x135) x135) (or x131 (not x154)))))) (and (or (not x39) x132) (and (or x19 (not x140)) (and (or (not x62) x110) (and (or x154 (not x131)) (or (not x10) x10))))))) (and (or (not x47) x133) (and (and (and (or (not x28) x134) (or x140 (not x19))) (or x118 (not x155))) (or (not x122) x122))))) (and (and (or x9 (not x9)) (and (or (not x93) x86) (and (and (or x61 (not x142)) (or (not x138) x83)) (or (not x139) x144)))) (and (and (and (and (and (and (or (not x53) x124) (or (not x104) x150)) (or (not x40) x40)) (or (not x35) x44)) (or x139 (not x144))) (and (and (or x138 (not x83)) (and (and (and (or (not x119) x7) (or x1 (not x1))) (or (not x124) x53)) (or x98 (not x103)))) (and (and (or x66 (not x31)) (and (or (not x150) x104) (and (or (not x7) x119) (or x15 (not x15))))) (or (not x61) x142)))) (and (or (not x86) x93) (and (or (not x153) x153) (and (or x35 (not x44)) (and (or (not x66) x31) (or (not x98) x103)))))))) (and (and (and (and (or (not x101) x101) (and (and (or x67 (not x129)) (or (not x92) x51)) (or (not x46) x21))) (or x8 (not x117))) (and (and (and (and (or x114 (not x114)) (and (or x75 (not x89)) (or (not x136) x52))) (or (not x21) x46)) (or (not x128) x80)) (and (and (and (and (or (not x52) x136) (and (or x16 (not x130)) (or x14 (not x14)))) (or x129 (not x67))) (or x116 (not x88))) (and (and (and (and (or (not x16) x130) (or (not x91) x91)) (or x89 (not x75))) (or x92 (not x51))) (or x137 (not x68)))))) (and (and (and (or x128 (not x80)) (and (or x88 (not x116)) (or (not x137) x68))) (or (not x8) x117)) (or (not x125) x125))))) (and (and (or x34 (not x34)) (and (and (and (or x148 (not x143)) (or x108 (not x45))) (or x55 (not x109))) (or x79 (not x26)))) (and (and (and (and (or x73 (not x11)) (and (or x121 (not x27)) (or x41 (not x3)))) (or (not x82) x82)) (or (not x79) x26)) (and (and (and (and (or x3 (not x41)) (and (and (or x115 (not x84)) (or (not x97) x97)) (or x81 (not x54)))) (or x143 (not x148))) (and (or (not x108) x45) (and (and (or x42 (not x24)) (and (or (not x70) x70) (or (not x115) x84))) (or (not x121) x27)))) (and (and (or (not x73) x11) (and (and (or (not x42) x24) (or (not x81) x54)) (or (not x72) x72))) (or x109 (not x55))))))))))
(check-sat)
(exit)
